SAT
-1 -100 -99 -98 -97 -96 -95 76 -94 93 92 9 -11 36 -53 68 51 -59 90 89 88 21 -66 -84 29 -27 7 35 43 37 18 56 34 -60 -69 -38 6 -2 57 54 -23 -25 71 46 22 44 -5 55 -75 -81 39 -62 83 33 -31 80 13 -78 -17 -77 50 12 -91 72 64 -73 -48 -87 -79 85 14 52 65 -4 -49 63 -45 61 24 8 32 58 -30 -10 26 -42 -15 -67 70 16 3 86 28 41 -19 74 47 -40 82 20 0
